
  32    4
  10   10   10   10

   0   0   0   0   0  11 2 4 5 10 12 13 14 15 18 30 31 
   1   1   0   1   1   2 21 3 
   2   0   1   6   4   3 20 16 6 
   3   4   5   0   3   3 16 8 7 
   6   3   0   3   2   3 28 20 8 
  10   3   7   0   4   2 28 8 
   3   1   1   0   3   3 29 27 9 
   5   0   8   2   3   2 27 9 
   8   4   3   0   5   3 26 25 11 
   1   4   4   3   0   2 27 11 
   2   6   2   5   0   2 23 17 
   2   5   3   2   0   3 26 25 20 
   8   4   4   0   4   3 24 23 19 
   3   3   0   2   3   2 20 19 
   5   0   7   5   8   2 20 19 
   8   4   3   0   2   1 17 
   8   0   4   5   4   2 24 19 
   8   4   0   3   6   1 20 
   9   6   0   7   2   1 22 
  10   0   4   5   4   1 23 
   2   6   4   6   0   1 22 
   3   2   0   7   4   1 32
   4   4   2   0   6   1 32
   7   6   5   3   0   1 32
   2   5   0   2   4   1 32
   5   5   0   1   5   1 32
   8   4   0   2   3   1 32
  10   6   0   8   7   1 32
   6   3   4   6   0   1 32
   2   0   5   6   5   1 32
   2   3   0   2   4   1 32
   0   0   0   0   0   0 
